80 8
63 73
11 21
30 40
94 100
86 96
49 59
75 85
13 23
8 18
6 16
1 11
78 88
36 46
24 34
88 98
13 23
94 100
10 20
43 53
56 66
5 15
82 92
13 23
100 100
78 88
58 68
3 13
87 97
89 99
51 61
89 99
79 89
67 77
44 54
93 100
12 22
17 27
1 11
68 78
20 30
29 39
51 61
15 25
97 100
14 24
33 43
49 59
64 74
95 100
45 55
24 34
32 42
69 79
87 97
90 100
94 100
60 70
72 82
28 38
46 56
80 90
32 42
13 23
17 27
99 100
74 84
93 100
37 47
60 70
40 50
42 52
32 42
96 100
58 68
22 32
91 100
41 51
94 100
20 30
86 96
506 586
618 742
571 681
474 563
483 589
450 509
492 558
514 593
